NAME          DCAP_3_4_2_200_SS174
ROWS
 N  OBJ
 L  CON1
 L  CON2
 L  CON3
 L  CON4
 L  CON5
 L  CON6
 L  CON7
 L  CON8
 L  CON9
 L  CON10
 L  CON11
 L  CON12
 E  CON13
 E  CON14
 E  CON15
 E  CON16
 E  CON17
 E  CON18
 E  CON19
 E  CON20
COLUMNS
    x[1,1]    OBJ       6.180167      CON1      1.000000    
    x[1,1]    CON7      -1.000000     CON8      -1.000000   
    x[1,2]    OBJ       5.039546      CON2      1.000000    
    x[1,2]    CON8      -1.000000   
    x[2,1]    OBJ       6.732585      CON3      1.000000    
    x[2,1]    CON9      -1.000000     CON10     -1.000000   
    x[2,2]    OBJ       7.443064      CON4      1.000000    
    x[2,2]    CON10     -1.000000   
    x[3,1]    OBJ       6.563535      CON5      1.000000    
    x[3,1]    CON11     -1.000000     CON12     -1.000000   
    x[3,2]    OBJ       6.054841      CON6      1.000000    
    x[3,2]    CON12     -1.000000   
    MARKER    'MARKER'                'INTORG'
    u[1,1]    OBJ       48.076654     CON1      -1.000000   
    u[1,2]    OBJ       49.466655     CON2      -1.000000   
    u[2,1]    OBJ       49.996186     CON3      -1.000000   
    u[2,2]    OBJ       32.230043     CON4      -1.000000   
    u[3,1]    OBJ       20.066487     CON5      -1.000000   
    u[3,2]    OBJ       27.484319     CON6      -1.000000   
    y[1,1,1]  OBJ       9.131404      CON7      1.317741    
    y[1,1,1]  CON13     1.000000    
    y[1,1,2]  OBJ       5.170723      CON8      1.451237    
    y[1,1,2]  CON14     1.000000    
    y[1,2,1]  OBJ       7.201983      CON7      0.961933    
    y[1,2,1]  CON15     1.000000    
    y[1,2,2]  OBJ       6.897508      CON8      1.350329    
    y[1,2,2]  CON16     1.000000    
    y[1,3,1]  OBJ       6.994816      CON7      0.738126    
    y[1,3,1]  CON17     1.000000    
    y[1,3,2]  OBJ       7.788366      CON8      1.045901    
    y[1,3,2]  CON18     1.000000    
    y[1,4,1]  OBJ       6.891137      CON7      1.003079    
    y[1,4,1]  CON19     1.000000    
    y[1,4,2]  OBJ       8.683710      CON8      0.765476    
    y[1,4,2]  CON20     1.000000    
    y[2,1,1]  OBJ       7.594100      CON9      1.317741    
    y[2,1,1]  CON13     1.000000    
    y[2,1,2]  OBJ       6.818541      CON10     1.451237    
    y[2,1,2]  CON14     1.000000    
    y[2,2,1]  OBJ       9.720006      CON9      0.961933    
    y[2,2,1]  CON15     1.000000    
    y[2,2,2]  OBJ       5.265680      CON10     1.350329    
    y[2,2,2]  CON16     1.000000    
    y[2,3,1]  OBJ       7.809261      CON9      0.738126    
    y[2,3,1]  CON17     1.000000    
    y[2,3,2]  OBJ       6.701267      CON10     1.045901    
    y[2,3,2]  CON18     1.000000    
    y[2,4,1]  OBJ       5.239989      CON9      1.003079    
    y[2,4,1]  CON19     1.000000    
    y[2,4,2]  OBJ       6.980815      CON10     0.765476    
    y[2,4,2]  CON20     1.000000    
    y[3,1,1]  OBJ       7.732436      CON11     1.317741    
    y[3,1,1]  CON13     1.000000    
    y[3,1,2]  OBJ       7.375383      CON12     1.451237    
    y[3,1,2]  CON14     1.000000    
    y[3,2,1]  OBJ       8.996005      CON11     0.961933    
    y[3,2,1]  CON15     1.000000    
    y[3,2,2]  OBJ       5.943634      CON12     1.350329    
    y[3,2,2]  CON16     1.000000    
    y[3,3,1]  OBJ       8.731101      CON11     0.738126    
    y[3,3,1]  CON17     1.000000    
    y[3,3,2]  OBJ       5.189226      CON12     1.045901    
    y[3,3,2]  CON18     1.000000    
    y[3,4,1]  OBJ       7.963016      CON11     1.003079    
    y[3,4,1]  CON19     1.000000    
    y[3,4,2]  OBJ       7.738473      CON12     0.765476    
    y[3,4,2]  CON20     1.000000    
    z[1,1]    OBJ       571.926193    CON13     1.000000    
    z[1,2]    OBJ       605.798915    CON14     1.000000    
    z[2,1]    OBJ       505.032146    CON15     1.000000    
    z[2,2]    OBJ       748.651339    CON16     1.000000    
    z[3,1]    OBJ       520.706029    CON17     1.000000    
    z[3,2]    OBJ       563.238820    CON18     1.000000    
    z[4,1]    OBJ       540.859860    CON19     1.000000    
    z[4,2]    OBJ       688.516081    CON20     1.000000    
    MARKER    'MARKER'                 'INTEND'
RHS
    RHS       CON1      -0.000000     CON2      -0.000000   
    RHS       CON3      -0.000000     CON4      -0.000000   
    RHS       CON5      -0.000000     CON6      -0.000000   
    RHS       CON7      -0.000000     CON8      -0.000000   
    RHS       CON9      -0.000000     CON10     -0.000000   
    RHS       CON11     -0.000000     CON12     -0.000000   
    RHS       CON13     1.000000      CON14     1.000000    
    RHS       CON15     1.000000      CON16     1.000000    
    RHS       CON17     1.000000      CON18     1.000000    
    RHS       CON19     1.000000      CON20     1.000000    
BOUNDS
 BV BOUND     u[1,1]  
 BV BOUND     u[1,2]  
 BV BOUND     u[2,1]  
 BV BOUND     u[2,2]  
 BV BOUND     u[3,1]  
 BV BOUND     u[3,2]  
 BV BOUND     y[1,1,1]
 BV BOUND     y[1,1,2]
 BV BOUND     y[1,2,1]
 BV BOUND     y[1,2,2]
 BV BOUND     y[1,3,1]
 BV BOUND     y[1,3,2]
 BV BOUND     y[1,4,1]
 BV BOUND     y[1,4,2]
 BV BOUND     y[2,1,1]
 BV BOUND     y[2,1,2]
 BV BOUND     y[2,2,1]
 BV BOUND     y[2,2,2]
 BV BOUND     y[2,3,1]
 BV BOUND     y[2,3,2]
 BV BOUND     y[2,4,1]
 BV BOUND     y[2,4,2]
 BV BOUND     y[3,1,1]
 BV BOUND     y[3,1,2]
 BV BOUND     y[3,2,1]
 BV BOUND     y[3,2,2]
 BV BOUND     y[3,3,1]
 BV BOUND     y[3,3,2]
 BV BOUND     y[3,4,1]
 BV BOUND     y[3,4,2]
 BV BOUND     z[1,1]  
 BV BOUND     z[1,2]  
 BV BOUND     z[2,1]  
 BV BOUND     z[2,2]  
 BV BOUND     z[3,1]  
 BV BOUND     z[3,2]  
 BV BOUND     z[4,1]  
 BV BOUND     z[4,2]  
ENDATA
